\ This file has been generated by DOcplex
\ ENCODING=ISO-8859-1
\Problem name: random_problem.lp

Minimize
 obj: 42 x0 + 21 x1 - 156 x2 - 78 x3 + 70 x4 + 35 x5 - 236 x6 - 118 x7 - 152 x8
      - 76 x9 + 208 x10 + 104 x11 + 328 x12 + 164 x13 - 590 x14 - 295 x15
      + 686 x16 + 343 x17 - 90 x18 - 45 x19 - 168 x20 - 84 x21 + [ 1016 x0^2
      + 1016 x0*x1 + 880 x0*x2 + 440 x0*x3 + 480 x0*x4 + 240 x0*x5 + 176 x0*x6
      + 88 x0*x7 + 880 x0*x8 + 440 x0*x9 + 1056 x0*x10 + 528 x0*x11 + 656 x0*x12
      + 328 x0*x13 + 608 x0*x14 + 304 x0*x15 + 1088 x0*x16 + 544 x0*x17
      + 1296 x0*x18 + 648 x0*x19 + 960 x0*x20 + 480 x0*x21 + 254 x1^2
      + 440 x1*x2 + 220 x1*x3 + 240 x1*x4 + 120 x1*x5 + 88 x1*x6 + 44 x1*x7
      + 440 x1*x8 + 220 x1*x9 + 528 x1*x10 + 264 x1*x11 + 328 x1*x12
      + 164 x1*x13 + 304 x1*x14 + 152 x1*x15 + 544 x1*x16 + 272 x1*x17
      + 648 x1*x18 + 324 x1*x19 + 480 x1*x20 + 240 x1*x21 + 504 x2^2 + 504 x2*x3
      + 320 x2*x4 + 160 x2*x5 + 64 x2*x6 + 32 x2*x7 + 976 x2*x8 + 488 x2*x9
      + 768 x2*x10 + 384 x2*x11 + 816 x2*x12 + 408 x2*x13 + 384 x2*x14
      + 192 x2*x15 + 864 x2*x16 + 432 x2*x17 + 768 x2*x18 + 384 x2*x19
      + 640 x2*x20 + 320 x2*x21 + 126 x3^2 + 160 x3*x4 + 80 x3*x5 + 32 x3*x6
      + 16 x3*x7 + 488 x3*x8 + 244 x3*x9 + 384 x3*x10 + 192 x3*x11 + 408 x3*x12
      + 204 x3*x13 + 192 x3*x14 + 96 x3*x15 + 432 x3*x16 + 216 x3*x17
      + 384 x3*x18 + 192 x3*x19 + 320 x3*x20 + 160 x3*x21 + 440 x4^2 + 440 x4*x5
      + 496 x4*x6 + 248 x4*x7 + 304 x4*x8 + 152 x4*x9 + 240 x4*x10 + 120 x4*x11
      - 128 x4*x12 - 64 x4*x13 + 352 x4*x14 + 176 x4*x15 + 336 x4*x16
      + 168 x4*x17 + 480 x4*x18 + 240 x4*x19 + 448 x4*x20 + 224 x4*x21
      + 110 x5^2 + 248 x5*x6 + 124 x5*x7 + 152 x5*x8 + 76 x5*x9 + 120 x5*x10
      + 60 x5*x11 - 64 x5*x12 - 32 x5*x13 + 176 x5*x14 + 88 x5*x15 + 168 x5*x16
      + 84 x5*x17 + 240 x5*x18 + 120 x5*x19 + 224 x5*x20 + 112 x5*x21 + 464 x6^2
      + 464 x6*x7 + 48 x6*x8 + 24 x6*x9 - 288 x6*x10 - 144 x6*x11 - 16 x6*x12
      - 8 x6*x13 + 144 x6*x14 + 72 x6*x15 - 192 x6*x16 - 96 x6*x17 + 128 x6*x18
      + 64 x6*x19 + 416 x6*x20 + 208 x6*x21 + 116 x7^2 + 24 x7*x8 + 12 x7*x9
      - 144 x7*x10 - 72 x7*x11 - 8 x7*x12 - 4 x7*x13 + 72 x7*x14 + 36 x7*x15
      - 96 x7*x16 - 48 x7*x17 + 64 x7*x18 + 32 x7*x19 + 208 x7*x20 + 104 x7*x21
      + 480 x8^2 + 480 x8*x9 + 768 x8*x10 + 384 x8*x11 + 784 x8*x12 + 392 x8*x13
      + 400 x8*x14 + 200 x8*x15 + 832 x8*x16 + 416 x8*x17 + 768 x8*x18
      + 384 x8*x19 + 656 x8*x20 + 328 x8*x21 + 120 x9^2 + 384 x9*x10
      + 192 x9*x11 + 392 x9*x12 + 196 x9*x13 + 200 x9*x14 + 100 x9*x15
      + 416 x9*x16 + 208 x9*x17 + 384 x9*x18 + 192 x9*x19 + 328 x9*x20
      + 164 x9*x21 + 680 x10^2 + 680 x10*x11 + 640 x10*x12 + 320 x10*x13
      + 384 x10*x14 + 192 x10*x15 + 1088 x10*x16 + 544 x10*x17 + 880 x10*x18
      + 440 x10*x19 + 528 x10*x20 + 264 x10*x21 + 170 x11^2 + 320 x11*x12
      + 160 x11*x13 + 192 x11*x14 + 96 x11*x15 + 544 x11*x16 + 272 x11*x17
      + 440 x11*x18 + 220 x11*x19 + 264 x11*x20 + 132 x11*x21 + 1128 x12^2
      + 1128 x12*x13 - 96 x12*x14 - 48 x12*x15 + 608 x12*x16 + 304 x12*x17
      + 336 x12*x18 + 168 x12*x19 + 384 x12*x20 + 192 x12*x21 + 282 x13^2
      - 48 x13*x14 - 24 x13*x15 + 304 x13*x16 + 152 x13*x17 + 168 x13*x18
      + 84 x13*x19 + 192 x13*x20 + 96 x13*x21 + 392 x14^2 + 392 x14*x15
      + 576 x14*x16 + 288 x14*x17 + 656 x14*x18 + 328 x14*x19 + 480 x14*x20
      + 240 x14*x21 + 98 x15^2 + 288 x15*x16 + 144 x15*x17 + 328 x15*x18
      + 164 x15*x19 + 240 x15*x20 + 120 x15*x21 + 1352 x16^2 + 1352 x16*x17
      + 896 x16*x18 + 448 x16*x19 + 576 x16*x20 + 288 x16*x21 + 338 x17^2
      + 448 x17*x18 + 224 x17*x19 + 288 x17*x20 + 144 x17*x21 + 664 x18^2
      + 664 x18*x19 + 656 x18*x20 + 328 x18*x21 + 166 x19^2 + 328 x19*x20
      + 164 x19*x21 + 456 x20^2 + 456 x20*x21 + 114 x21^2 ]/2
Subject To
 c0: 2 x0 + x1 + 2 x2 + x3 + 2 x4 + x5 + 2 x6 + x7 + 2 x8 + x9 + 2 x10 + x11
     + 2 x12 + x13 + 2 x14 + x15 + 2 x16 + x17 + 2 x18 + x19 + 2 x20 + x21 = 3

Bounds
 0 <= x0 <= 1
 0 <= x1 <= 1
 0 <= x2 <= 1
 0 <= x3 <= 1
 0 <= x4 <= 1
 0 <= x5 <= 1
 0 <= x6 <= 1
 0 <= x7 <= 1
 0 <= x8 <= 1
 0 <= x9 <= 1
 0 <= x10 <= 1
 0 <= x11 <= 1
 0 <= x12 <= 1
 0 <= x13 <= 1
 0 <= x14 <= 1
 0 <= x15 <= 1
 0 <= x16 <= 1
 0 <= x17 <= 1
 0 <= x18 <= 1
 0 <= x19 <= 1
 0 <= x20 <= 1
 0 <= x21 <= 1

Binaries
 x0 x1 x2 x3 x4 x5 x6 x7 x8 x9 x10 x11 x12 x13 x14 x15 x16 x17 x18 x19 x20 x21
End
